NAME : n20w160.002.250.tour
COMMENT : Length = 250
COMMENT : Found by LKH [Keld Helsgaun] Tue Nov  7 19:38:46 2017
TYPE : TOUR
DIMENSION : 21
TOUR_SECTION
1
20
5
19
2
9
13
16
8
18
11
4
6
10
12
7
17
21
15
3
14
-1
EOF
